Name: ArchitectureSpringInstance
Courses: 125
Rooms: 10
Days: 5
Periods_per_day: 12
Curricula: 20
Min_Max_Daily_Lectures: 1 6
UnavailabilityConstraints: 1745
RoomConstraints: 1026

COURSES:
c041 t005 2 1 55 0
c0411 t027 3 1 18 0
c0412 t027 3 1 18 0
c0413 t027 3 1 18 0
c042 t005 2 1 55 0
c0421 t027 3 1 18 0
c0422 t027 3 1 18 0
c0423 t027 3 1 18 0
c043 t008 2 1 55 0
c0431 t021 2 1 27 0
c0432 t021 2 1 27 0
c044 t008 2 1 55 0
c0441 t021 2 1 27 0
c0442 t021 2 1 27 0
c045 t013 2 1 55 0
c0451 t041 2 1 18 0
c0452 t041 2 1 18 0
c0453 t041 2 1 18 0
c046 t013 2 1 55 0
c0461 t041 2 1 18 0
c0462 t041 2 1 18 0
c0463 t041 2 1 18 0
c047 t019 2 1 55 0
c0471 t043 2 1 18 0
c0472 t043 2 1 18 0
c0473 t043 2 1 18 0
c048 t019 2 1 55 0
c0481 t043 2 1 18 0
c0482 t043 2 1 18 0
c0483 t043 2 1 18 0
c049 t008 2 1 55 0
c0491 t042 2 1 27 0
c0492 t042 2 1 27 0
c050 t008 2 1 55 0
c0501 t042 2 1 27 0
c0502 t042 2 1 27 0
c051 t021 2 1 55 0
c0511 t021 2 1 27 0
c0512 t021 2 1 27 0
c052 t021 2 1 55 0
c0521 t021 2 1 27 0
c0522 t021 2 1 27 0
c053 t044 2 1 110 0
c054 t017 2 1 80 0
c0541 t022 2 1 20 0
c0542 t022 2 1 20 0
c0543 t022 2 1 20 0
c0544 t022 2 1 20 0
c055 t016 2 1 80 0
c0551 t016 2 1 40 0
c0552 t016 2 1 40 0
c056 t005 2 1 80 0
c0561 t015 3 1 20 0
c0562 t015 3 1 20 0
c0563 t015 3 1 20 0
c0564 t015 3 1 20 0
c057 t004 2 1 80 0
c0571 t030 3 1 20 0
c0572 t030 3 1 20 0
c0573 t029 3 1 20 0
c0574 t031 3 1 20 0
c058 t045 2 1 80 0
c0581 t028 1 1 20 0
c0582 t028 1 1 20 0
c0583 t028 1 1 20 0
c0584 t028 1 1 20 0
c059 t029 2 1 80 0
c0591 t029 2 1 40 0
c0592 t029 2 1 40 0
c060 t030 2 1 80 0
c0601 t030 2 1 40 0
c0602 t030 2 1 40 0
c061 t002 4 1 46 0
c0611 t025 4 1 23 0
c0612 t025 4 1 23 0
c062 t002 4 1 46 0
c0621 t028 4 1 23 0
c0622 t028 4 1 23 0
c063 t010 2 1 46 0
c0631 t033 2 1 23 0
c0632 t033 2 1 23 0
c064 t010 2 1 46 0
c0641 t033 2 1 23 0
c0642 t033 2 1 23 0
c065 t011 2 1 46 0
c0651 t030 4 1 15 0
c0652 t030 4 1 15 0
c0653 t029 4 1 15 0
c066 t011 2 1 46 0
c0661 t029 4 1 15 0
c0662 t031 4 1 15 0
c0663 t031 4 1 15 0
c067 t009 2 1 93 0
c0671 t046 2 1 46 0
c0672 t046 2 1 46 0
c068 t047 2 1 93 0
c0681 t048 2 1 46 0
c0682 t046 2 1 46 0
c069 t004 4 1 72 0
c0691 t029 4 1 18 0
c0692 t029 4 1 18 0
c0693 t030 4 1 18 0
c0694 t031 4 1 18 0
c071 t008 2 1 72 0
c072 t016 2 1 72 0
c073 t010 2 1 72 0
c0731 t033 2 1 18 0
c0732 t033 2 1 18 0
c0733 t033 2 1 18 0
c0734 t033 2 1 18 0
c074 t040 2 1 72 0
c0741 t040 2 1 14 0
c0742 t040 2 1 14 0
c0743 t040 2 1 14 0
c0744 t040 2 1 14 0
c0745 t040 2 1 14 0
c070 t034 2 1 72 0
c0701 t035 2 1 18 0
c07011 t002 4 1 18 0
c0702 t035 2 1 18 0
c07021 t025 4 1 18 0
c0703 t036 2 1 18 0
c07031 t039 4 1 18 0
c0704 t036 2 1 18 0
c07041 t040 4 1 18 0

ROOMS:
r001 120 0
r002  80 1
r003 80 1
r004 80 1
r005 80 1
r006 100 1
r007 100 1
r008 150 1
r009 80 1
r010 80 2

CURRICULA:
q001 13 c041 c0411 c043 c0431 c045 c0451 c047 c0471 c049 c0491 c051 c0511 c053
q002 13 c041 c0412 c043 c0432 c045 c0452 c047 c0472 c049 c0492 c051 c0512 c053
q003 10 c041 c0413 c043 c045 c0453 c047 c0473 c049 c051 c053
q004 12 c042 c0421 c044 c0441 c046 c0461 c048 c0481 c050 c0501 c052 c0521
q005 12 c042 c0422 c044 c0442 c046 c0462 c048 c0482 c050 c0502 c052 c0522
q006 9 c042 c0423 c044 c046 c0463 c048 c0483 c050 c052
q007 14 c054 c0541 c055 c0551 c056 c0561 c057 c0571 c058 c0581 c059 c0591 c060 c0601
q008 14 c054 c0542 c055 c0552 c056 c0562 c057 c0572 c058 c0582 c059 c0592 c060 c0602
q009 11 c054 c0543 c055 c056 c0563 c057 c0573 c058 c0583 c059 c060
q010 11 c054 c0544 c055 c056 c0564 c057 c0574 c058 c0584 c059 c060
q011 10 c061 c0611 c063 c0631 c065 c0651 c067 c0671 c068 c0681
q012 10 c061 c0612 c063 c0632 c065 c0652 c067 c0672 c068 c0682
q013 6 c061 c063 c065 c0653 c067 c068
q014 6 c062 c0621 c064 c0641 c066 c0661
q015 6 c062 c0622 c064 c0642 c066 c0662
q016 4 c062 c064 c066 c0663
q017 11 c069 c0691 c071 c072 c073 c0731 c074 c0741 c070 c0701 c07011
q018 11 c069 c0692 c071 c072 c073 c0732 c074 c0742 c070 c0702 c07021
q019 11 c069 c0693 c071 c072 c073 c0733 c074 c0743 c070 c0703 c07031
q020 11 c069 c0694 c071 c072 c073 c0734 c074 c0744 c070 c0704 c07041

UNAVAILABILITY_CONSTRAINTS:
c041 0 6
c041 0 7
c041 0 8
c041 0 9
c041 0 10
c041 0 11
c041 1 6
c041 1 7
c041 1 8
c041 1 9
c041 1 10
c041 1 11
c041 2 6
c041 2 7
c041 2 8
c041 2 9
c041 2 10
c041 2 11
c041 3 6
c041 3 7
c041 3 8
c041 3 9
c041 3 10
c041 3 11
c041 4 6
c041 4 7
c041 4 8
c041 4 9
c041 4 10
c041 4 11
c0411 0 6
c0411 0 7
c0411 0 8
c0411 0 9
c0411 0 10
c0411 0 11
c0411 1 6
c0411 1 7
c0411 1 8
c0411 1 9
c0411 1 10
c0411 1 11
c0411 2 6
c0411 2 7
c0411 2 8
c0411 2 9
c0411 2 10
c0411 2 11
c0411 3 6
c0411 3 7
c0411 3 8
c0411 3 9
c0411 3 10
c0411 3 11
c0411 4 6
c0411 4 7
c0411 4 8
c0411 4 9
c0411 4 10
c0411 4 11
c0412 0 6
c0412 0 7
c0412 0 8
c0412 0 9
c0412 0 10
c0412 0 11
c0412 1 6
c0412 1 7
c0412 1 8
c0412 1 9
c0412 1 10
c0412 1 11
c0412 2 6
c0412 2 7
c0412 2 8
c0412 2 9
c0412 2 10
c0412 2 11
c0412 3 6
c0412 3 7
c0412 3 8
c0412 3 9
c0412 3 10
c0412 3 11
c0412 4 6
c0412 4 7
c0412 4 8
c0412 4 9
c0412 4 10
c0412 4 11
c0413 0 6
c0413 0 7
c0413 0 8
c0413 0 9
c0413 0 10
c0413 0 11
c0413 1 6
c0413 1 7
c0413 1 8
c0413 1 9
c0413 1 10
c0413 1 11
c0413 2 6
c0413 2 7
c0413 2 8
c0413 2 9
c0413 2 10
c0413 2 11
c0413 3 6
c0413 3 7
c0413 3 8
c0413 3 9
c0413 3 10
c0413 3 11
c0413 4 6
c0413 4 7
c0413 4 8
c0413 4 9
c0413 4 10
c0413 4 11
c042 0 6
c042 0 7
c042 0 8
c042 0 9
c042 0 10
c042 0 11
c042 1 6
c042 1 7
c042 1 8
c042 1 9
c042 1 10
c042 1 11
c042 2 6
c042 2 7
c042 2 8
c042 2 9
c042 2 10
c042 2 11
c042 3 6
c042 3 7
c042 3 8
c042 3 9
c042 3 10
c042 3 11
c042 4 6
c042 4 7
c042 4 8
c042 4 9
c042 4 10
c042 4 11
c0421 0 6
c0421 0 7
c0421 0 8
c0421 0 9
c0421 0 10
c0421 0 11
c0421 1 6
c0421 1 7
c0421 1 8
c0421 1 9
c0421 1 10
c0421 1 11
c0421 2 6
c0421 2 7
c0421 2 8
c0421 2 9
c0421 2 10
c0421 2 11
c0421 3 6
c0421 3 7
c0421 3 8
c0421 3 9
c0421 3 10
c0421 3 11
c0421 4 6
c0421 4 7
c0421 4 8
c0421 4 9
c0421 4 10
c0421 4 11
c0422 0 6
c0422 0 7
c0422 0 8
c0422 0 9
c0422 0 10
c0422 0 11
c0422 1 6
c0422 1 7
c0422 1 8
c0422 1 9
c0422 1 10
c0422 1 11
c0422 2 6
c0422 2 7
c0422 2 8
c0422 2 9
c0422 2 10
c0422 2 11
c0422 3 6
c0422 3 7
c0422 3 8
c0422 3 9
c0422 3 10
c0422 3 11
c0422 4 6
c0422 4 7
c0422 4 8
c0422 4 9
c0422 4 10
c0422 4 11
c0423 0 6
c0423 0 7
c0423 0 8
c0423 0 9
c0423 0 10
c0423 0 11
c0423 1 6
c0423 1 7
c0423 1 8
c0423 1 9
c0423 1 10
c0423 1 11
c0423 2 6
c0423 2 7
c0423 2 8
c0423 2 9
c0423 2 10
c0423 2 11
c0423 3 6
c0423 3 7
c0423 3 8
c0423 3 9
c0423 3 10
c0423 3 11
c0423 4 6
c0423 4 7
c0423 4 8
c0423 4 9
c0423 4 10
c0423 4 11
c043 0 6
c043 0 7
c043 0 8
c043 0 9
c043 0 10
c043 0 11
c043 1 6
c043 1 7
c043 1 8
c043 1 9
c043 1 10
c043 1 11
c043 2 6
c043 2 7
c043 2 8
c043 2 9
c043 2 10
c043 2 11
c043 3 6
c043 3 7
c043 3 8
c043 3 9
c043 3 10
c043 3 11
c043 4 6
c043 4 7
c043 4 8
c043 4 9
c043 4 10
c043 4 11
c0431 0 6
c0431 0 7
c0431 0 8
c0431 0 9
c0431 0 10
c0431 0 11
c0431 1 6
c0431 1 7
c0431 1 8
c0431 1 9
c0431 1 10
c0431 1 11
c0431 2 6
c0431 2 7
c0431 2 8
c0431 2 9
c0431 2 10
c0431 2 11
c0431 3 6
c0431 3 7
c0431 3 8
c0431 3 9
c0431 3 10
c0431 3 11
c0431 4 6
c0431 4 7
c0431 4 8
c0431 4 9
c0431 4 10
c0431 4 11
c0432 0 6
c0432 0 7
c0432 0 8
c0432 0 9
c0432 0 10
c0432 0 11
c0432 1 6
c0432 1 7
c0432 1 8
c0432 1 9
c0432 1 10
c0432 1 11
c0432 2 6
c0432 2 7
c0432 2 8
c0432 2 9
c0432 2 10
c0432 2 11
c0432 3 6
c0432 3 7
c0432 3 8
c0432 3 9
c0432 3 10
c0432 3 11
c0432 4 6
c0432 4 7
c0432 4 8
c0432 4 9
c0432 4 10
c0432 4 11
c044 0 6
c044 0 7
c044 0 8
c044 0 9
c044 0 10
c044 0 11
c044 1 6
c044 1 7
c044 1 8
c044 1 9
c044 1 10
c044 1 11
c044 2 6
c044 2 7
c044 2 8
c044 2 9
c044 2 10
c044 2 11
c044 3 6
c044 3 7
c044 3 8
c044 3 9
c044 3 10
c044 3 11
c044 4 6
c044 4 7
c044 4 8
c044 4 9
c044 4 10
c044 4 11
c0441 0 6
c0441 0 7
c0441 0 8
c0441 0 9
c0441 0 10
c0441 0 11
c0441 1 6
c0441 1 7
c0441 1 8
c0441 1 9
c0441 1 10
c0441 1 11
c0441 2 6
c0441 2 7
c0441 2 8
c0441 2 9
c0441 2 10
c0441 2 11
c0441 3 6
c0441 3 7
c0441 3 8
c0441 3 9
c0441 3 10
c0441 3 11
c0441 4 6
c0441 4 7
c0441 4 8
c0441 4 9
c0441 4 10
c0441 4 11
c0442 0 6
c0442 0 7
c0442 0 8
c0442 0 9
c0442 0 10
c0442 0 11
c0442 1 6
c0442 1 7
c0442 1 8
c0442 1 9
c0442 1 10
c0442 1 11
c0442 2 6
c0442 2 7
c0442 2 8
c0442 2 9
c0442 2 10
c0442 2 11
c0442 3 6
c0442 3 7
c0442 3 8
c0442 3 9
c0442 3 10
c0442 3 11
c0442 4 6
c0442 4 7
c0442 4 8
c0442 4 9
c0442 4 10
c0442 4 11
c045 0 6
c045 0 7
c045 0 8
c045 0 9
c045 0 10
c045 0 11
c045 1 6
c045 1 7
c045 1 8
c045 1 9
c045 1 10
c045 1 11
c045 2 6
c045 2 7
c045 2 8
c045 2 9
c045 2 10
c045 2 11
c045 3 6
c045 3 7
c045 3 8
c045 3 9
c045 3 10
c045 3 11
c045 4 6
c045 4 7
c045 4 8
c045 4 9
c045 4 10
c045 4 11
c0451 0 6
c0451 0 7
c0451 0 8
c0451 0 9
c0451 0 10
c0451 0 11
c0451 1 6
c0451 1 7
c0451 1 8
c0451 1 9
c0451 1 10
c0451 1 11
c0451 2 6
c0451 2 7
c0451 2 8
c0451 2 9
c0451 2 10
c0451 2 11
c0451 3 6
c0451 3 7
c0451 3 8
c0451 3 9
c0451 3 10
c0451 3 11
c0451 4 6
c0451 4 7
c0451 4 8
c0451 4 9
c0451 4 10
c0451 4 11
c0452 0 6
c0452 0 7
c0452 0 8
c0452 0 9
c0452 0 10
c0452 0 11
c0452 1 6
c0452 1 7
c0452 1 8
c0452 1 9
c0452 1 10
c0452 1 11
c0452 2 6
c0452 2 7
c0452 2 8
c0452 2 9
c0452 2 10
c0452 2 11
c0452 3 6
c0452 3 7
c0452 3 8
c0452 3 9
c0452 3 10
c0452 3 11
c0452 4 6
c0452 4 7
c0452 4 8
c0452 4 9
c0452 4 10
c0452 4 11
c0453 0 6
c0453 0 7
c0453 0 8
c0453 0 9
c0453 0 10
c0453 0 11
c0453 1 6
c0453 1 7
c0453 1 8
c0453 1 9
c0453 1 10
c0453 1 11
c0453 2 6
c0453 2 7
c0453 2 8
c0453 2 9
c0453 2 10
c0453 2 11
c0453 3 6
c0453 3 7
c0453 3 8
c0453 3 9
c0453 3 10
c0453 3 11
c0453 4 6
c0453 4 7
c0453 4 8
c0453 4 9
c0453 4 10
c0453 4 11
c046 0 6
c046 0 7
c046 0 8
c046 0 9
c046 0 10
c046 0 11
c046 1 6
c046 1 7
c046 1 8
c046 1 9
c046 1 10
c046 1 11
c046 2 6
c046 2 7
c046 2 8
c046 2 9
c046 2 10
c046 2 11
c046 3 6
c046 3 7
c046 3 8
c046 3 9
c046 3 10
c046 3 11
c046 4 6
c046 4 7
c046 4 8
c046 4 9
c046 4 10
c046 4 11
c0461 0 6
c0461 0 7
c0461 0 8
c0461 0 9
c0461 0 10
c0461 0 11
c0461 1 6
c0461 1 7
c0461 1 8
c0461 1 9
c0461 1 10
c0461 1 11
c0461 2 6
c0461 2 7
c0461 2 8
c0461 2 9
c0461 2 10
c0461 2 11
c0461 3 6
c0461 3 7
c0461 3 8
c0461 3 9
c0461 3 10
c0461 3 11
c0461 4 6
c0461 4 7
c0461 4 8
c0461 4 9
c0461 4 10
c0461 4 11
c0462 0 6
c0462 0 7
c0462 0 8
c0462 0 9
c0462 0 10
c0462 0 11
c0462 1 6
c0462 1 7
c0462 1 8
c0462 1 9
c0462 1 10
c0462 1 11
c0462 2 6
c0462 2 7
c0462 2 8
c0462 2 9
c0462 2 10
c0462 2 11
c0462 3 6
c0462 3 7
c0462 3 8
c0462 3 9
c0462 3 10
c0462 3 11
c0462 4 6
c0462 4 7
c0462 4 8
c0462 4 9
c0462 4 10
c0462 4 11
c0463 0 6
c0463 0 7
c0463 0 8
c0463 0 9
c0463 0 10
c0463 0 11
c0463 1 6
c0463 1 7
c0463 1 8
c0463 1 9
c0463 1 10
c0463 1 11
c0463 2 6
c0463 2 7
c0463 2 8
c0463 2 9
c0463 2 10
c0463 2 11
c0463 3 6
c0463 3 7
c0463 3 8
c0463 3 9
c0463 3 10
c0463 3 11
c0463 4 6
c0463 4 7
c0463 4 8
c0463 4 9
c0463 4 10
c0463 4 11
c047 0 6
c047 0 7
c047 0 8
c047 0 9
c047 0 10
c047 0 11
c047 1 6
c047 1 7
c047 1 8
c047 1 9
c047 1 10
c047 1 11
c047 2 6
c047 2 7
c047 2 8
c047 2 9
c047 2 10
c047 2 11
c047 3 6
c047 3 7
c047 3 8
c047 3 9
c047 3 10
c047 3 11
c047 4 6
c047 4 7
c047 4 8
c047 4 9
c047 4 10
c047 4 11
c0471 0 6
c0471 0 7
c0471 0 8
c0471 0 9
c0471 0 10
c0471 0 11
c0471 1 6
c0471 1 7
c0471 1 8
c0471 1 9
c0471 1 10
c0471 1 11
c0471 2 6
c0471 2 7
c0471 2 8
c0471 2 9
c0471 2 10
c0471 2 11
c0471 3 6
c0471 3 7
c0471 3 8
c0471 3 9
c0471 3 10
c0471 3 11
c0471 4 6
c0471 4 7
c0471 4 8
c0471 4 9
c0471 4 10
c0471 4 11
c0472 0 6
c0472 0 7
c0472 0 8
c0472 0 9
c0472 0 10
c0472 0 11
c0472 1 6
c0472 1 7
c0472 1 8
c0472 1 9
c0472 1 10
c0472 1 11
c0472 2 6
c0472 2 7
c0472 2 8
c0472 2 9
c0472 2 10
c0472 2 11
c0472 3 6
c0472 3 7
c0472 3 8
c0472 3 9
c0472 3 10
c0472 3 11
c0472 4 6
c0472 4 7
c0472 4 8
c0472 4 9
c0472 4 10
c0472 4 11
c0473 0 6
c0473 0 7
c0473 0 8
c0473 0 9
c0473 0 10
c0473 0 11
c0473 1 6
c0473 1 7
c0473 1 8
c0473 1 9
c0473 1 10
c0473 1 11
c0473 2 6
c0473 2 7
c0473 2 8
c0473 2 9
c0473 2 10
c0473 2 11
c0473 3 6
c0473 3 7
c0473 3 8
c0473 3 9
c0473 3 10
c0473 3 11
c0473 4 6
c0473 4 7
c0473 4 8
c0473 4 9
c0473 4 10
c0473 4 11
c048 0 6
c048 0 7
c048 0 8
c048 0 9
c048 0 10
c048 0 11
c048 1 6
c048 1 7
c048 1 8
c048 1 9
c048 1 10
c048 1 11
c048 2 6
c048 2 7
c048 2 8
c048 2 9
c048 2 10
c048 2 11
c048 3 6
c048 3 7
c048 3 8
c048 3 9
c048 3 10
c048 3 11
c048 4 6
c048 4 7
c048 4 8
c048 4 9
c048 4 10
c048 4 11
c0481 0 6
c0481 0 7
c0481 0 8
c0481 0 9
c0481 0 10
c0481 0 11
c0481 1 6
c0481 1 7
c0481 1 8
c0481 1 9
c0481 1 10
c0481 1 11
c0481 2 6
c0481 2 7
c0481 2 8
c0481 2 9
c0481 2 10
c0481 2 11
c0481 3 6
c0481 3 7
c0481 3 8
c0481 3 9
c0481 3 10
c0481 3 11
c0481 4 6
c0481 4 7
c0481 4 8
c0481 4 9
c0481 4 10
c0481 4 11
c0482 0 6
c0482 0 7
c0482 0 8
c0482 0 9
c0482 0 10
c0482 0 11
c0482 1 6
c0482 1 7
c0482 1 8
c0482 1 9
c0482 1 10
c0482 1 11
c0482 2 6
c0482 2 7
c0482 2 8
c0482 2 9
c0482 2 10
c0482 2 11
c0482 3 6
c0482 3 7
c0482 3 8
c0482 3 9
c0482 3 10
c0482 3 11
c0482 4 6
c0482 4 7
c0482 4 8
c0482 4 9
c0482 4 10
c0482 4 11
c0483 0 6
c0483 0 7
c0483 0 8
c0483 0 9
c0483 0 10
c0483 0 11
c0483 1 6
c0483 1 7
c0483 1 8
c0483 1 9
c0483 1 10
c0483 1 11
c0483 2 6
c0483 2 7
c0483 2 8
c0483 2 9
c0483 2 10
c0483 2 11
c0483 3 6
c0483 3 7
c0483 3 8
c0483 3 9
c0483 3 10
c0483 3 11
c0483 4 6
c0483 4 7
c0483 4 8
c0483 4 9
c0483 4 10
c0483 4 11
c049 0 6
c049 0 7
c049 0 8
c049 0 9
c049 0 10
c049 0 11
c049 1 6
c049 1 7
c049 1 8
c049 1 9
c049 1 10
c049 1 11
c049 2 6
c049 2 7
c049 2 8
c049 2 9
c049 2 10
c049 2 11
c049 3 6
c049 3 7
c049 3 8
c049 3 9
c049 3 10
c049 3 11
c049 4 6
c049 4 7
c049 4 8
c049 4 9
c049 4 10
c049 4 11
c0491 0 6
c0491 0 7
c0491 0 8
c0491 0 9
c0491 0 10
c0491 0 11
c0491 1 6
c0491 1 7
c0491 1 8
c0491 1 9
c0491 1 10
c0491 1 11
c0491 2 6
c0491 2 7
c0491 2 8
c0491 2 9
c0491 2 10
c0491 2 11
c0491 3 6
c0491 3 7
c0491 3 8
c0491 3 9
c0491 3 10
c0491 3 11
c0491 4 6
c0491 4 7
c0491 4 8
c0491 4 9
c0491 4 10
c0491 4 11
c0492 0 6
c0492 0 7
c0492 0 8
c0492 0 9
c0492 0 10
c0492 0 11
c0492 1 6
c0492 1 7
c0492 1 8
c0492 1 9
c0492 1 10
c0492 1 11
c0492 2 6
c0492 2 7
c0492 2 8
c0492 2 9
c0492 2 10
c0492 2 11
c0492 3 6
c0492 3 7
c0492 3 8
c0492 3 9
c0492 3 10
c0492 3 11
c0492 4 6
c0492 4 7
c0492 4 8
c0492 4 9
c0492 4 10
c0492 4 11
c050 0 6
c050 0 7
c050 0 8
c050 0 9
c050 0 10
c050 0 11
c050 1 6
c050 1 7
c050 1 8
c050 1 9
c050 1 10
c050 1 11
c050 2 6
c050 2 7
c050 2 8
c050 2 9
c050 2 10
c050 2 11
c050 3 6
c050 3 7
c050 3 8
c050 3 9
c050 3 10
c050 3 11
c050 4 6
c050 4 7
c050 4 8
c050 4 9
c050 4 10
c050 4 11
c0501 0 6
c0501 0 7
c0501 0 8
c0501 0 9
c0501 0 10
c0501 0 11
c0501 1 6
c0501 1 7
c0501 1 8
c0501 1 9
c0501 1 10
c0501 1 11
c0501 2 6
c0501 2 7
c0501 2 8
c0501 2 9
c0501 2 10
c0501 2 11
c0501 3 6
c0501 3 7
c0501 3 8
c0501 3 9
c0501 3 10
c0501 3 11
c0501 4 6
c0501 4 7
c0501 4 8
c0501 4 9
c0501 4 10
c0501 4 11
c0502 0 6
c0502 0 7
c0502 0 8
c0502 0 9
c0502 0 10
c0502 0 11
c0502 1 6
c0502 1 7
c0502 1 8
c0502 1 9
c0502 1 10
c0502 1 11
c0502 2 6
c0502 2 7
c0502 2 8
c0502 2 9
c0502 2 10
c0502 2 11
c0502 3 6
c0502 3 7
c0502 3 8
c0502 3 9
c0502 3 10
c0502 3 11
c0502 4 6
c0502 4 7
c0502 4 8
c0502 4 9
c0502 4 10
c0502 4 11
c051 0 6
c051 0 7
c051 0 8
c051 0 9
c051 0 10
c051 0 11
c051 1 6
c051 1 7
c051 1 8
c051 1 9
c051 1 10
c051 1 11
c051 2 6
c051 2 7
c051 2 8
c051 2 9
c051 2 10
c051 2 11
c051 3 6
c051 3 7
c051 3 8
c051 3 9
c051 3 10
c051 3 11
c051 4 6
c051 4 7
c051 4 8
c051 4 9
c051 4 10
c051 4 11
c0511 0 6
c0511 0 7
c0511 0 8
c0511 0 9
c0511 0 10
c0511 0 11
c0511 1 6
c0511 1 7
c0511 1 8
c0511 1 9
c0511 1 10
c0511 1 11
c0511 2 6
c0511 2 7
c0511 2 8
c0511 2 9
c0511 2 10
c0511 2 11
c0511 3 6
c0511 3 7
c0511 3 8
c0511 3 9
c0511 3 10
c0511 3 11
c0511 4 6
c0511 4 7
c0511 4 8
c0511 4 9
c0511 4 10
c0511 4 11
c0512 0 6
c0512 0 7
c0512 0 8
c0512 0 9
c0512 0 10
c0512 0 11
c0512 1 6
c0512 1 7
c0512 1 8
c0512 1 9
c0512 1 10
c0512 1 11
c0512 2 6
c0512 2 7
c0512 2 8
c0512 2 9
c0512 2 10
c0512 2 11
c0512 3 6
c0512 3 7
c0512 3 8
c0512 3 9
c0512 3 10
c0512 3 11
c0512 4 6
c0512 4 7
c0512 4 8
c0512 4 9
c0512 4 10
c0512 4 11
c052 0 6
c052 0 7
c052 0 8
c052 0 9
c052 0 10
c052 0 11
c052 1 6
c052 1 7
c052 1 8
c052 1 9
c052 1 10
c052 1 11
c052 2 6
c052 2 7
c052 2 8
c052 2 9
c052 2 10
c052 2 11
c052 3 6
c052 3 7
c052 3 8
c052 3 9
c052 3 10
c052 3 11
c052 4 6
c052 4 7
c052 4 8
c052 4 9
c052 4 10
c052 4 11
c0521 0 6
c0521 0 7
c0521 0 8
c0521 0 9
c0521 0 10
c0521 0 11
c0521 1 6
c0521 1 7
c0521 1 8
c0521 1 9
c0521 1 10
c0521 1 11
c0521 2 6
c0521 2 7
c0521 2 8
c0521 2 9
c0521 2 10
c0521 2 11
c0521 3 6
c0521 3 7
c0521 3 8
c0521 3 9
c0521 3 10
c0521 3 11
c0521 4 6
c0521 4 7
c0521 4 8
c0521 4 9
c0521 4 10
c0521 4 11
c0522 0 6
c0522 0 7
c0522 0 8
c0522 0 9
c0522 0 10
c0522 0 11
c0522 1 6
c0522 1 7
c0522 1 8
c0522 1 9
c0522 1 10
c0522 1 11
c0522 2 6
c0522 2 7
c0522 2 8
c0522 2 9
c0522 2 10
c0522 2 11
c0522 3 6
c0522 3 7
c0522 3 8
c0522 3 9
c0522 3 10
c0522 3 11
c0522 4 6
c0522 4 7
c0522 4 8
c0522 4 9
c0522 4 10
c0522 4 11
c053 0 6
c053 0 7
c053 0 8
c053 0 9
c053 0 10
c053 0 11
c053 1 6
c053 1 7
c053 1 8
c053 1 9
c053 1 10
c053 1 11
c053 2 6
c053 2 7
c053 2 8
c053 2 9
c053 2 10
c053 2 11
c053 3 6
c053 3 7
c053 3 8
c053 3 9
c053 3 10
c053 3 11
c053 4 6
c053 4 7
c053 4 8
c053 4 9
c053 4 10
c053 4 11
c054 0 5
c054 0 6
c054 0 7
c054 0 8
c054 0 9
c054 0 10
c054 0 11
c054 1 5
c054 1 6
c054 1 7
c054 1 8
c054 1 9
c054 1 10
c054 1 11
c054 2 5
c054 2 6
c054 2 7
c054 2 8
c054 2 9
c054 2 10
c054 2 11
c054 3 5
c054 3 6
c054 3 7
c054 3 8
c054 3 9
c054 3 10
c054 3 11
c054 4 5
c054 4 6
c054 4 7
c054 4 8
c054 4 9
c054 4 10
c054 4 11
c055 0 5
c055 0 6
c055 0 7
c055 0 8
c055 0 9
c055 0 10
c055 0 11
c055 1 5
c055 1 6
c055 1 7
c055 1 8
c055 1 9
c055 1 10
c055 1 11
c055 2 5
c055 2 6
c055 2 7
c055 2 8
c055 2 9
c055 2 10
c055 2 11
c055 3 5
c055 3 6
c055 3 7
c055 3 8
c055 3 9
c055 3 10
c055 3 11
c055 4 5
c055 4 6
c055 4 7
c055 4 8
c055 4 9
c055 4 10
c055 4 11
c056 0 5
c056 0 6
c056 0 7
c056 0 8
c056 0 9
c056 0 10
c056 0 11
c056 1 5
c056 1 6
c056 1 7
c056 1 8
c056 1 9
c056 1 10
c056 1 11
c056 2 5
c056 2 6
c056 2 7
c056 2 8
c056 2 9
c056 2 10
c056 2 11
c056 3 5
c056 3 6
c056 3 7
c056 3 8
c056 3 9
c056 3 10
c056 3 11
c056 4 5
c056 4 6
c056 4 7
c056 4 8
c056 4 9
c056 4 10
c056 4 11
c057 0 5
c057 0 6
c057 0 7
c057 0 8
c057 0 9
c057 0 10
c057 0 11
c057 1 5
c057 1 6
c057 1 7
c057 1 8
c057 1 9
c057 1 10
c057 1 11
c057 2 5
c057 2 6
c057 2 7
c057 2 8
c057 2 9
c057 2 10
c057 2 11
c057 3 5
c057 3 6
c057 3 7
c057 3 8
c057 3 9
c057 3 10
c057 3 11
c057 4 5
c057 4 6
c057 4 7
c057 4 8
c057 4 9
c057 4 10
c057 4 11
c058 0 5
c058 0 6
c058 0 7
c058 0 8
c058 0 9
c058 0 10
c058 0 11
c058 1 5
c058 1 6
c058 1 7
c058 1 8
c058 1 9
c058 1 10
c058 1 11
c058 2 5
c058 2 6
c058 2 7
c058 2 8
c058 2 9
c058 2 10
c058 2 11
c058 3 5
c058 3 6
c058 3 7
c058 3 8
c058 3 9
c058 3 10
c058 3 11
c058 4 5
c058 4 6
c058 4 7
c058 4 8
c058 4 9
c058 4 10
c058 4 11
c059 0 5
c059 0 6
c059 0 7
c059 0 8
c059 0 9
c059 0 10
c059 0 11
c059 1 5
c059 1 6
c059 1 7
c059 1 8
c059 1 9
c059 1 10
c059 1 11
c059 2 5
c059 2 6
c059 2 7
c059 2 8
c059 2 9
c059 2 10
c059 2 11
c059 3 5
c059 3 6
c059 3 7
c059 3 8
c059 3 9
c059 3 10
c059 3 11
c059 4 5
c059 4 6
c059 4 7
c059 4 8
c059 4 9
c059 4 10
c059 4 11
c060 0 5
c060 0 6
c060 0 7
c060 0 8
c060 0 9
c060 0 10
c060 0 11
c060 1 5
c060 1 6
c060 1 7
c060 1 8
c060 1 9
c060 1 10
c060 1 11
c060 2 5
c060 2 6
c060 2 7
c060 2 8
c060 2 9
c060 2 10
c060 2 11
c060 3 5
c060 3 6
c060 3 7
c060 3 8
c060 3 9
c060 3 10
c060 3 11
c060 4 5
c060 4 6
c060 4 7
c060 4 8
c060 4 9
c060 4 10
c060 4 11
c069 0 5
c069 0 6
c069 0 7
c069 0 8
c069 0 9
c069 0 10
c069 0 11
c069 1 5
c069 1 6
c069 1 7
c069 1 8
c069 1 9
c069 1 10
c069 1 11
c069 2 5
c069 2 6
c069 2 7
c069 2 8
c069 2 9
c069 2 10
c069 2 11
c069 3 5
c069 3 6
c069 3 7
c069 3 8
c069 3 9
c069 3 10
c069 3 11
c069 4 5
c069 4 6
c069 4 7
c069 4 8
c069 4 9
c069 4 10
c069 4 11
c071 0 5
c071 0 6
c071 0 7
c071 0 8
c071 0 9
c071 0 10
c071 0 11
c071 1 5
c071 1 6
c071 1 7
c071 1 8
c071 1 9
c071 1 10
c071 1 11
c071 2 5
c071 2 6
c071 2 7
c071 2 8
c071 2 9
c071 2 10
c071 2 11
c071 3 5
c071 3 6
c071 3 7
c071 3 8
c071 3 9
c071 3 10
c071 3 11
c071 4 5
c071 4 6
c071 4 7
c071 4 8
c071 4 9
c071 4 10
c071 4 11
c072 0 5
c072 0 6
c072 0 7
c072 0 8
c072 0 9
c072 0 10
c072 0 11
c072 1 5
c072 1 6
c072 1 7
c072 1 8
c072 1 9
c072 1 10
c072 1 11
c072 2 5
c072 2 6
c072 2 7
c072 2 8
c072 2 9
c072 2 10
c072 2 11
c072 3 5
c072 3 6
c072 3 7
c072 3 8
c072 3 9
c072 3 10
c072 3 11
c072 4 5
c072 4 6
c072 4 7
c072 4 8
c072 4 9
c072 4 10
c072 4 11
c073 0 5
c073 0 6
c073 0 7
c073 0 8
c073 0 9
c073 0 10
c073 0 11
c073 1 5
c073 1 6
c073 1 7
c073 1 8
c073 1 9
c073 1 10
c073 1 11
c073 2 5
c073 2 6
c073 2 7
c073 2 8
c073 2 9
c073 2 10
c073 2 11
c073 3 5
c073 3 6
c073 3 7
c073 3 8
c073 3 9
c073 3 10
c073 3 11
c073 4 5
c073 4 6
c073 4 7
c073 4 8
c073 4 9
c073 4 10
c073 4 11
c074 0 5
c074 0 6
c074 0 7
c074 0 8
c074 0 9
c074 0 10
c074 0 11
c074 1 5
c074 1 6
c074 1 7
c074 1 8
c074 1 9
c074 1 10
c074 1 11
c074 2 5
c074 2 6
c074 2 7
c074 2 8
c074 2 9
c074 2 10
c074 2 11
c074 3 5
c074 3 6
c074 3 7
c074 3 8
c074 3 9
c074 3 10
c074 3 11
c074 4 5
c074 4 6
c074 4 7
c074 4 8
c074 4 9
c074 4 10
c074 4 11
c070 0 5
c070 0 6
c070 0 7
c070 0 8
c070 0 9
c070 0 10
c070 0 11
c070 1 5
c070 1 6
c070 1 7
c070 1 8
c070 1 9
c070 1 10
c070 1 11
c070 2 5
c070 2 6
c070 2 7
c070 2 8
c070 2 9
c070 2 10
c070 2 11
c070 3 5
c070 3 6
c070 3 7
c070 3 8
c070 3 9
c070 3 10
c070 3 11
c070 4 5
c070 4 6
c070 4 7
c070 4 8
c070 4 9
c070 4 10
c070 4 11

ROOM_CONSTRAINTS:
c041 r001
c041 r002 
c041 r003
c041 r004
c041 r005
c041 r006
c041 r008
c041 r009
c041 r010
c0411 r001
c0411 r002 
c0411 r004
c0411 r005
c0411 r006
c0411 r007
c0411 r008
c0411 r009
c0411 r010
c0412 r001
c0412 r002 
c0412 r004
c0412 r005
c0412 r006
c0412 r007
c0412 r008
c0412 r009
c0412 r010
c0413 r001
c0413 r002 
c0413 r004
c0413 r005
c0413 r006
c0413 r007
c0413 r008
c0413 r009
c0413 r010
c042 r001
c042 r002 
c042 r003
c042 r004
c042 r005
c042 r006
c042 r008
c042 r009
c042 r010
c0421 r001
c0421 r002 
c0421 r004
c0421 r005
c0421 r006
c0421 r007
c0421 r008
c0421 r009
c0421 r010
c0422 r001
c0422 r002 
c0422 r004
c0422 r005
c0422 r006
c0422 r007
c0422 r008
c0422 r009
c0422 r010
c0423 r001
c0423 r002 
c0423 r004
c0423 r005
c0423 r006
c0423 r007
c0423 r008
c0423 r009
c0423 r010
c043 r001
c043 r002 
c043 r003
c043 r004
c043 r005
c043 r006
c043 r007
c043 r009
c043 r010
c0431 r001
c0431 r002 
c0431 r003
c0431 r004
c0431 r005
c0431 r006
c0431 r008
c0431 r009
c0431 r010
c0432 r001
c0432 r002 
c0432 r003
c0432 r004
c0432 r005
c0432 r006
c0432 r008
c0432 r009
c0432 r010
c044 r001
c044 r002 
c044 r003
c044 r004
c044 r005
c044 r006
c044 r007
c044 r009
c044 r010
c0441 r001
c0441 r002 
c0441 r003
c0441 r004
c0441 r005
c0441 r006
c0441 r008
c0441 r009
c0441 r010
c0442 r001
c0442 r002 
c0442 r003
c0442 r004
c0442 r005
c0442 r006
c0442 r008
c0442 r009
c0442 r010
c045 r002 
c045 r003
c045 r004
c045 r005
c045 r006
c045 r007
c045 r008
c045 r009
c045 r010
c0451 r003
c0451 r004
c0451 r005
c0451 r006
c0451 r007
c0451 r008
c0451 r009
c0451 r010
c0452 r003
c0452 r004
c0452 r005
c0452 r006
c0452 r007
c0452 r008
c0452 r009
c0452 r010
c0453 r003
c0453 r004
c0453 r005
c0453 r006
c0453 r007
c0453 r008
c0453 r009
c0453 r010
c046 r002 
c046 r003
c046 r004
c046 r005
c046 r006
c046 r007
c046 r008
c046 r009
c046 r010
c0461 r003
c0461 r004
c0461 r005
c0461 r006
c0461 r007
c0461 r008
c0461 r009
c0461 r010
c0462 r003
c0462 r004
c0462 r005
c0462 r006
c0462 r007
c0462 r008
c0462 r009
c0462 r010
c0463 r003
c0463 r004
c0463 r005
c0463 r006
c0463 r007
c0463 r008
c0463 r009
c0463 r010
c047 r001
c047 r002 
c047 r003
c047 r004
c047 r005
c047 r006
c047 r007
c047 r009
c047 r010
c0471 r001
c0471 r002 
c0471 r003
c0471 r005
c0471 r006
c0471 r007
c0471 r009
c0471 r010
c0472 r001
c0472 r002 
c0472 r003
c0472 r005
c0472 r006
c0472 r007
c0472 r009
c0472 r010
c0473 r001
c0473 r002 
c0473 r003
c0473 r005
c0473 r006
c0473 r007
c0473 r009
c0473 r010
c048 r001
c048 r002 
c048 r003
c048 r004
c048 r005
c048 r006
c048 r007
c048 r009
c048 r010
c0481 r001
c0481 r002 
c0481 r003
c0481 r005
c0481 r006
c0481 r007
c0481 r009
c0481 r010
c0482 r001
c0482 r002 
c0482 r003
c0482 r005
c0482 r006
c0482 r007
c0482 r009
c0482 r010
c0483 r001
c0483 r002 
c0483 r003
c0483 r005
c0483 r006
c0483 r007
c0483 r009
c0483 r010
c049 r001
c049 r002 
c049 r003
c049 r004
c049 r005
c049 r006
c049 r007
c049 r009
c049 r010
c0491 r001
c0491 r002 
c0491 r003
c0491 r004
c0491 r005
c0491 r006
c0491 r009
c0491 r010
c0492 r001
c0492 r002 
c0492 r003
c0492 r004
c0492 r005
c0492 r006
c0492 r009
c0492 r010
c050 r001
c050 r002 
c050 r003
c050 r004
c050 r005
c050 r006
c050 r007
c050 r009
c050 r010
c0501 r001
c0501 r002 
c0501 r003
c0501 r004
c0501 r005
c0501 r006
c0501 r009
c0501 r010
c0502 r001
c0502 r002 
c0502 r003
c0502 r004
c0502 r005
c0502 r006
c0502 r009
c0502 r010
c051 r001
c051 r002 
c051 r003
c051 r004
c051 r005
c051 r006
c051 r007
c051 r009
c051 r010
c0511 r001
c0511 r002 
c0511 r003
c0511 r004
c0511 r005
c0511 r006
c0511 r008
c0511 r009
c0511 r010
c0512 r001
c0512 r002 
c0512 r003
c0512 r004
c0512 r005
c0512 r006
c0512 r008
c0512 r009
c0512 r010
c052 r001
c052 r002 
c052 r003
c052 r004
c052 r005
c052 r006
c052 r007
c052 r009
c052 r010
c0521 r001
c0521 r002 
c0521 r003
c0521 r004
c0521 r005
c0521 r006
c0521 r008
c0521 r009
c0521 r010
c0522 r001
c0522 r002 
c0522 r003
c0522 r004
c0522 r005
c0522 r006
c0522 r008
c0522 r009
c0522 r010
c053 r001
c053 r002 
c053 r003
c053 r004
c053 r005
c053 r006
c053 r007
c053 r009
c053 r010
c054 r001
c054 r002 
c054 r003
c054 r004
c054 r005
c054 r006
c054 r007
c054 r009
c054 r010
c0541 r001
c0541 r002 
c0541 r003
c0541 r004
c0541 r005
c0541 r007
c0541 r008
c0541 r009
c0541 r010
c0542 r001
c0542 r002 
c0542 r003
c0542 r004
c0542 r005
c0542 r007
c0542 r008
c0542 r009
c0542 r010
c0543 r001
c0543 r002 
c0543 r003
c0543 r004
c0543 r005
c0543 r007
c0543 r008
c0543 r009
c0543 r010
c0544 r001
c0544 r002 
c0544 r003
c0544 r004
c0544 r005
c0544 r007
c0544 r008
c0544 r009
c0544 r010
c055 r001
c055 r002 
c055 r003
c055 r004
c055 r005
c055 r006
c055 r007
c055 r009
c055 r010
c0551 r001
c0551 r002 
c0551 r003
c0551 r004
c0551 r005
c0551 r006
c0551 r007
c0551 r009
c0551 r010
c0552 r001
c0552 r002 
c0552 r003
c0552 r004
c0552 r005
c0552 r006
c0552 r007
c0552 r009
c0552 r010
c056 r001
c056 r002 
c056 r003
c056 r004
c056 r005
c056 r007
c056 r008
c056 r009
c056 r010
c0561 r001
c0561 r002 
c0561 r003
c0561 r004
c0561 r005
c0561 r007
c0561 r008
c0561 r009
c0561 r010
c0562 r001
c0562 r002 
c0562 r003
c0562 r004
c0562 r005
c0562 r007
c0562 r008
c0562 r009
c0562 r010
c0563 r001
c0563 r002 
c0563 r003
c0563 r004
c0563 r005
c0563 r007
c0563 r008
c0563 r009
c0563 r010
c0564 r001
c0564 r002 
c0564 r003
c0564 r004
c0564 r005
c0564 r007
c0564 r008
c0564 r009
c0564 r010
c057 r001
c057 r002 
c057 r003
c057 r004
c057 r005
c057 r006
c057 r008
c057 r009
c057 r010
c0571 r001
c0571 r002 
c0571 r003
c0571 r004
c0571 r008
c0571 r009
c0571 r010
c0572 r001
c0572 r002 
c0572 r003
c0572 r004
c0572 r008
c0572 r009
c0572 r010
c0573 r001
c0573 r002 
c0573 r003
c0573 r004
c0573 r008
c0573 r009
c0573 r010
c0574 r001
c0574 r002 
c0574 r003
c0574 r004
c0574 r008
c0574 r009
c0574 r010
c058 r001
c058 r002 
c058 r003
c058 r004
c058 r005
c058 r006
c058 r008
c058 r009
c058 r010
c0581 r001
c0581 r002 
c0581 r003
c0581 r004
c0581 r005
c0581 r006
c0581 r008
c0581 r009
c0581 r010
c0582 r001
c0582 r002 
c0582 r003
c0582 r004
c0582 r005
c0582 r006
c0582 r008
c0582 r009
c0582 r010
c0583 r001
c0583 r002 
c0583 r003
c0583 r004
c0583 r005
c0583 r006
c0583 r008
c0583 r009
c0583 r010
c0584 r001
c0584 r002 
c0584 r003
c0584 r004
c0584 r005
c0584 r006
c0584 r008
c0584 r009
c0584 r010
c059 r001
c059 r002 
c059 r003
c059 r005
c059 r006
c059 r007
c059 r008
c059 r009
c059 r010
c0591 r001
c0591 r002 
c0591 r003
c0591 r005
c0591 r006
c0591 r007
c0591 r008
c0591 r009
c0591 r010
c0592 r001
c0592 r002 
c0592 r003
c0592 r005
c0592 r006
c0592 r007
c0592 r008
c0592 r009
c0592 r010
c060 r001
c060 r002 
c060 r003
c060 r004
c060 r005
c060 r007
c060 r008
c060 r009
c060 r010
c0601 r001
c0601 r002 
c0601 r003
c0601 r004
c0601 r005
c0601 r007
c0601 r008
c0601 r009
c0601 r010
c0602 r001
c0602 r002 
c0602 r003
c0602 r004
c0602 r005
c0602 r007
c0602 r008
c0602 r009
c0602 r010
c061 r002 
c061 r003
c061 r004
c061 r005
c061 r006
c061 r007
c061 r008
c061 r009
c061 r010
c0611 r001
c0611 r002 
c0611 r003
c0611 r006
c0611 r007
c0611 r008
c0611 r009
c0611 r010
c0612 r001
c0612 r002 
c0612 r003
c0612 r006
c0612 r007
c0612 r008
c0612 r009
c0612 r010
c062 r002 
c062 r003
c062 r004
c062 r005
c062 r006
c062 r007
c062 r008
c062 r009
c062 r010
c0621 r001
c0621 r002 
c0621 r003
c0621 r006
c0621 r007
c0621 r008
c0621 r009
c0621 r010
c0622 r001
c0622 r002 
c0622 r003
c0622 r006
c0622 r007
c0622 r008
c0622 r009
c0622 r010
c063 r001
c063 r002 
c063 r003
c063 r006
c063 r007
c063 r008
c063 r009
c063 r010
c0631 r001
c0631 r002 
c0631 r006
c0631 r007
c0631 r008
c0631 r009
c0631 r010
c0632 r001
c0632 r002 
c0632 r006
c0632 r007
c0632 r008
c0632 r009
c0632 r010
c064 r001
c064 r002 
c064 r003
c064 r006
c064 r007
c064 r008
c064 r009
c064 r010
c0641 r001
c0641 r002 
c0641 r006
c0641 r007
c0641 r008
c0641 r009
c0641 r010
c0642 r001
c0642 r002 
c0642 r006
c0642 r007
c0642 r008
c0642 r009
c0642 r010
c065 r001
c065 r002 
c065 r004
c065 r005
c065 r006
c065 r007
c065 r008
c065 r009
c0651 r001
c0651 r002 
c0651 r006
c0651 r007
c0651 r008
c0651 r009
c0651 r010
c0652 r001
c0652 r002 
c0652 r006
c0652 r007
c0652 r008
c0652 r009
c0652 r010
c0653 r001
c0653 r002 
c0653 r006
c0653 r007
c0653 r008
c0653 r009
c0653 r010
c066 r001
c066 r002 
c066 r004
c066 r005
c066 r006
c066 r007
c066 r008
c066 r009
c0661 r001
c0661 r002 
c0661 r006
c0661 r007
c0661 r008
c0661 r009
c0661 r010
c0662 r001
c0662 r002 
c0662 r006
c0662 r007
c0662 r008
c0662 r009
c0662 r010
c0663 r001
c0663 r002 
c0663 r006
c0663 r007
c0663 r008
c0663 r009
c0663 r010
c067 r002 
c067 r003
c067 r004
c067 r005
c067 r006
c067 r007
c067 r008
c067 r009
c067 r010
c0671 r002 
c0671 r003
c0671 r004
c0671 r005
c0671 r006
c0671 r007
c0671 r008
c0671 r009
c0671 r010
c0672 r002 
c0672 r003
c0672 r004
c0672 r005
c0672 r006
c0672 r007
c0672 r008
c0672 r009
c0672 r010
c068 r001
c068 r002 
c068 r007
c068 r008
c068 r009
c068 r010
c0681 r001
c0681 r002 
c0681 r007
c0681 r008
c0681 r009
c0681 r010
c0682 r001
c0682 r002 
c0682 r007
c0682 r008
c0682 r009
c0682 r010
c069 r001
c069 r002 
c069 r003
c069 r004
c069 r005
c069 r006
c069 r007
c069 r008
c069 r009
c0691 r001
c0691 r002 
c0691 r008
c0691 r009
c0692 r001
c0692 r002 
c0692 r008
c0692 r009
c0693 r001
c0693 r002 
c0693 r008
c0693 r009
c0694 r001
c0694 r002 
c0694 r008
c0694 r009
c071 r001
c071 r002 
c071 r008
c071 r009
c072 r001
c072 r002 
c072 r003
c072 r004
c072 r005
c072 r006
c072 r007
c072 r008
c072 r009
c073 r001
c073 r002 
c073 r003
c073 r004
c073 r005
c073 r006
c073 r007
c073 r008
c073 r009
c0731 r001
c0731 r002 
c0731 r003
c0731 r004
c0731 r005
c0731 r006
c0731 r007
c0731 r008
c0731 r009
c0732 r001
c0732 r002 
c0732 r003
c0732 r004
c0732 r005
c0732 r006
c0732 r007
c0732 r008
c0732 r009
c0733 r001
c0733 r002 
c0733 r003
c0733 r004
c0733 r005
c0733 r006
c0733 r007
c0733 r008
c0733 r009
c0734 r001
c0734 r002 
c0734 r003
c0734 r004
c0734 r005
c0734 r006
c0734 r007
c0734 r008
c0734 r009
c074 r002 
c074 r003
c074 r004
c074 r005
c074 r006
c074 r007
c074 r008
c074 r009
c074 r010
c0741 r002 
c0741 r003
c0741 r004
c0741 r005
c0741 r006
c0741 r007
c0741 r008
c0741 r009
c0742 r002 
c0742 r003
c0742 r004
c0742 r005
c0742 r006
c0742 r007
c0742 r008
c0742 r009
c0743 r002 
c0743 r003
c0743 r004
c0743 r005
c0743 r006
c0743 r007
c0743 r008
c0743 r009
c0744 r002 
c0744 r003
c0744 r004
c0744 r005
c0744 r006
c0744 r007
c0744 r008
c0744 r009
c0745 r002 
c0745 r003
c0745 r004
c0745 r005
c0745 r006
c0745 r007
c0745 r008
c0745 r009
c070 r001
c070 r002 
c070 r003
c070 r004
c070 r005
c070 r006
c070 r007
c070 r008
c070 r009
c0701 r001
c0701 r002 
c0701 r003
c0701 r004
c0701 r005
c0701 r006
c0701 r007
c0701 r009
c07011 r001
c07011 r002 
c07011 r003
c07011 r004
c07011 r005
c07011 r007
c07011 r008
c07011 r009
c0702 r001
c0702 r002 
c0702 r003
c0702 r004
c0702 r005
c0702 r006
c0702 r007
c0702 r009
c07021 r001
c07021 r002 
c07021 r003
c07021 r004
c07021 r005
c07021 r007
c07021 r008
c07021 r009
c0703 r001
c0703 r002 
c0703 r003
c0703 r004
c0703 r005
c0703 r006
c0703 r007
c0703 r009
c07031 r001
c07031 r002 
c07031 r003
c07031 r004
c07031 r005
c07031 r007
c07031 r008
c07031 r009
c0704 r001
c0704 r002 
c0704 r003
c0704 r004
c0704 r005
c0704 r006
c0704 r007
c0704 r009
c07041 r001
c07041 r002 
c07041 r003
c07041 r004
c07041 r005
c07041 r007
c07041 r008
c07041 r009

END.
